; benchmark generated from python API
(set-info :status unknown)
(declare-fun DISJ_W_S2_R_E1 () Bool)
(declare-fun W_S2_V1 () Bool)
(declare-fun R_E1_V1 () Bool)
(declare-fun W_S2_V3 () Bool)
(declare-fun W_S2_V2 () Bool)
(declare-fun W_S2_V5 () Bool)
(declare-fun W_S2_V6 () Bool)
(declare-fun W_S3_V1 () Bool)
(declare-fun W_S3_V3 () Bool)
(declare-fun W_S3_V2 () Bool)
(declare-fun W_S3_V4 () Bool)
(declare-fun W_S3_V6 () Bool)
(declare-fun W_S1_V1 () Bool)
(declare-fun W_S1_V2 () Bool)
(declare-fun W_S1_V5 () Bool)
(declare-fun W_S1_V4 () Bool)
(declare-fun W_S1_V6 () Bool)
(declare-fun R_S2_V1 () Bool)
(declare-fun R_S2_V3 () Bool)
(declare-fun R_S2_V2 () Bool)
(declare-fun R_S2_V5 () Bool)
(declare-fun R_S2_V4 () Bool)
(declare-fun R_S2_V6 () Bool)
(declare-fun R_E1_V3 () Bool)
(declare-fun R_E1_V2 () Bool)
(declare-fun R_E1_V5 () Bool)
(declare-fun R_E1_V4 () Bool)
(declare-fun R_E1_V6 () Bool)
(declare-fun DISJ_W_S2_W_S3 () Bool)
(declare-fun DISJ_W_S2_R_S2 () Bool)
(declare-fun R_S3_V1 () Bool)
(declare-fun R_S3_V3 () Bool)
(declare-fun R_S3_V2 () Bool)
(declare-fun R_S3_V5 () Bool)
(declare-fun R_S3_V4 () Bool)
(declare-fun R_S3_V6 () Bool)
(declare-fun DISJ_W_S2_R_S3 () Bool)
(declare-fun R_S1_V1 () Bool)
(declare-fun R_S1_V3 () Bool)
(declare-fun R_S1_V2 () Bool)
(declare-fun R_S1_V5 () Bool)
(declare-fun R_S1_V4 () Bool)
(declare-fun R_S1_V6 () Bool)
(declare-fun DISJ_W_S2_R_S1 () Bool)
(declare-fun R_B1_V1 () Bool)
(declare-fun R_B1_V3 () Bool)
(declare-fun R_B1_V2 () Bool)
(declare-fun R_B1_V5 () Bool)
(declare-fun R_B1_V4 () Bool)
(declare-fun R_B1_V6 () Bool)
(declare-fun DISJ_W_S2_R_B1 () Bool)
(declare-fun DISJ_W_S3_R_S2 () Bool)
(declare-fun DISJ_W_S3_R_E1 () Bool)
(declare-fun DISJ_W_S3_R_S3 () Bool)
(declare-fun DISJ_W_S3_R_S1 () Bool)
(declare-fun DISJ_W_S3_R_B1 () Bool)
(declare-fun DISJ_W_S1_W_S2 () Bool)
(declare-fun DISJ_W_S1_W_S3 () Bool)
(declare-fun DISJ_W_S1_R_S2 () Bool)
(declare-fun DISJ_W_S1_R_E1 () Bool)
(declare-fun DISJ_W_S1_R_S3 () Bool)
(declare-fun DISJ_W_S1_R_S1 () Bool)
(declare-fun DISJ_W_S1_R_B1 () Bool)
(declare-fun W_S2_V4 () Bool)
(declare-fun W_S3_V5 () Bool)
(declare-fun W_S1_V3 () Bool)
(assert
 (let (($x1888 (not (and (not R_E1_V1) (not W_S2_V1) DISJ_W_S2_R_E1))))
 (let (($x1792 (forall ((V6_0 Int) )(forall ((V4_0 Int) )(forall ((V5_0 Int) )(forall ((V2_0 Int) )(forall ((V3_0 Int) )(forall ((V1_0 Int) )(forall ((MW_S1_V6 Bool) )(forall ((MW_S1_V4 Bool) )(forall ((MW_S1_V5 Bool) )(forall ((MW_S1_V2 Bool) )(forall ((MW_S1_V3 Bool) )(forall ((MW_S1_V1 Bool) )(forall ((MW_S3_V6 Bool) )(forall ((MW_S3_V4 Bool) )(forall ((MW_S3_V2 Bool) )(forall ((MW_S3_V3 Bool) )(forall ((MW_S3_V1 Bool) )(forall ((MW_S2_V6 Bool) )(forall ((MW_S2_V4 Bool) )(forall ((MW_S2_V5 Bool) )(forall ((MW_S2_V2 Bool) )(forall ((MW_S2_V3 Bool) )(forall ((MW_S2_V1 Bool) )(forall ((S1_V4_!47 Int) )(forall ((S1_V4_!62 Int) )(forall ((S2_V4_!54 Int) )(forall ((S2_V4_!69 Int) )(forall ((S1_V6_!46 Int) )(forall ((S1_V6_!61 Int) )(forall ((E1_!52 Int) )(forall ((E1_!59 Int) )(forall ((E1_!67 Int) )(forall ((S1_V1_!51 Int) )(forall ((S1_V1_!66 Int) )(forall ((S2_V6_!53 Int) )(forall ((S2_V6_!68 Int) )(forall ((S1_V3_!50 Int) )(forall ((S1_V3_!65 Int) )(forall ((S1_V2_!49 Int) )(forall ((S1_V2_!64 Int) )(forall ((B1_!45 Bool) )(forall ((B1_!60 Bool) )(forall ((S2_V1_!58 Int) )(forall ((S2_V1_!73 Int) )(forall ((S2_V5_!55 Int) )(forall ((S2_V5_!70 Int) )(forall ((S2_V2_!56 Int) )(forall ((S2_V2_!71 Int) )(forall ((S2_V3_!57 Int) )(forall ((S2_V3_!72 Int) )(forall ((S1_V5_!48 Int) )(forall ((S1_V5_!63 Int) )(let ((?x700 (ite MW_S1_V3 S1_V3_!50 V3_0)))
 (let ((?x2076 (ite MW_S2_V3 S2_V3_!57 ?x700)))
 (let ((?x1297 (ite MW_S1_V5 S1_V5_!48 V5_0)))
 (let ((?x4944 (ite MW_S2_V5 S2_V5_!55 ?x1297)))
 (let ((?x3107 (ite MW_S1_V4 S1_V4_!47 V4_0)))
 (let ((?x490 (ite MW_S2_V4 S2_V4_!54 ?x3107)))
 (let ((?x5086 (ite MW_S1_V6 S1_V6_!46 V6_0)))
 (let ((?x3173 (ite MW_S2_V6 S2_V6_!53 ?x5086)))
 (let (($x2966 (and (= ?x3173 (ite MW_S2_V6 S2_V6_!68 (ite MW_S1_V6 S1_V6_!61 V6_0))) (= ?x490 (ite MW_S2_V4 S2_V4_!69 (ite MW_S1_V4 S1_V4_!62 V4_0))) (= ?x4944 (ite MW_S2_V5 S2_V5_!70 (ite MW_S1_V5 S1_V5_!63 V5_0))) (= E1_!59 (ite MW_S2_V1 S2_V1_!73 E1_!67)) (= ?x2076 (ite MW_S2_V3 S2_V3_!72 (ite MW_S1_V3 S1_V3_!65 V3_0))) (= (ite MW_S2_V1 S2_V1_!58 E1_!52) (ite MW_S2_V1 S2_V1_!73 E1_!67)))))
 (let (($x2855 (and (or (not R_S2_V6) (= ?x5086 (ite MW_S1_V6 S1_V6_!61 V6_0))) (or (not R_S2_V4) (= ?x3107 (ite MW_S1_V4 S1_V4_!62 V4_0))) (or (not R_S2_V5) (= ?x1297 (ite MW_S1_V5 S1_V5_!63 V5_0))) (or (not R_S2_V2) (= (ite MW_S1_V2 S1_V2_!49 V2_0) (ite MW_S1_V2 S1_V2_!64 V2_0))) (or (not R_S2_V3) (= ?x700 (ite MW_S1_V3 S1_V3_!65 V3_0))) (or (not R_S2_V1) (= E1_!52 E1_!67)))))
 (let (($x575 (not $x2855)))
 (let (($x2070 (and (or (not R_S2_V6) (= (ite MW_S1_V6 S1_V6_!61 V6_0) ?x5086)) (or (not R_S2_V4) (= (ite MW_S1_V4 S1_V4_!62 V4_0) ?x3107)) (or (not R_S2_V5) (= (ite MW_S1_V5 S1_V5_!63 V5_0) ?x1297)) (or (not R_S2_V2) (= (ite MW_S1_V2 S1_V2_!64 V2_0) (ite MW_S1_V2 S1_V2_!49 V2_0))) (or (not R_S2_V3) (= (ite MW_S1_V3 S1_V3_!65 V3_0) ?x700)) (or (not R_S2_V1) (= E1_!67 E1_!52)))))
 (let (($x1105 (not $x2070)))
 (let (($x926 (= E1_!67 E1_!52)))
 (let (($x48 (and (or (not R_E1_V6) (= (ite MW_S1_V6 S1_V6_!61 V6_0) ?x5086)) (or (not R_E1_V4) (= (ite MW_S1_V4 S1_V4_!62 V4_0) ?x3107)) (or (not R_E1_V5) (= (ite MW_S1_V5 S1_V5_!63 V5_0) ?x1297)) (or (not R_E1_V2) (= (ite MW_S1_V2 S1_V2_!64 V2_0) (ite MW_S1_V2 S1_V2_!49 V2_0))) (or (not R_E1_V3) (= (ite MW_S1_V3 S1_V3_!65 V3_0) ?x700)) (or (not R_E1_V1) (= (ite MW_S1_V1 S1_V1_!66 V1_0) (ite MW_S1_V1 S1_V1_!51 V1_0))))))
 (let (($x363 (not R_E1_V2)))
 (let (($x753 (or $x363 (= (ite MW_S2_V2 S2_V2_!56 (ite MW_S1_V2 S1_V2_!49 V2_0)) (ite MW_S1_V2 S1_V2_!64 V2_0)))))
 (let (($x5910 (and (or (not R_E1_V6) (= ?x3173 (ite MW_S1_V6 S1_V6_!61 V6_0))) (or (not R_E1_V4) (= ?x490 (ite MW_S1_V4 S1_V4_!62 V4_0))) (or (not R_E1_V5) (= ?x4944 (ite MW_S1_V5 S1_V5_!63 V5_0))) $x753 (or (not R_E1_V3) (= ?x2076 (ite MW_S1_V3 S1_V3_!65 V3_0))) (or (not R_E1_V1) (= (ite MW_S2_V1 S2_V1_!58 E1_!52) (ite MW_S1_V1 S1_V1_!66 V1_0))))))
 (let (($x3655 (or $x363 (= (ite MW_S2_V2 S2_V2_!56 (ite MW_S1_V2 S1_V2_!49 V2_0)) (ite MW_S1_V2 S1_V2_!49 V2_0)))))
 (let (($x2211 (and (or (not R_E1_V6) (= ?x3173 ?x5086)) (or (not R_E1_V4) (= ?x490 ?x3107)) (or (not R_E1_V5) (= ?x4944 ?x1297)) $x3655 (or (not R_E1_V3) (= ?x2076 ?x700)) (or (not R_E1_V1) (= (ite MW_S2_V1 S2_V1_!58 E1_!52) (ite MW_S1_V1 S1_V1_!51 V1_0))))))
 (let (($x2394 (and (= S1_V4_!47 S1_V4_!62) (or $x575 (= S2_V4_!54 S2_V4_!69)) (= S1_V6_!61 S1_V6_!46) (or (not $x2211) (= E1_!59 E1_!52)) (or (not $x5910) (= E1_!59 E1_!67)) (or (not $x48) $x926) (= S1_V1_!66 S1_V1_!51) (or $x1105 (= S2_V6_!68 S2_V6_!53)) (= S1_V3_!65 S1_V3_!50) (= S1_V2_!64 S1_V2_!49) (= B1_!60 B1_!45) (or $x1105 (= S2_V1_!73 S2_V1_!58)) (or $x1105 (= S2_V5_!70 S2_V5_!55)) (or $x575 (= S2_V2_!56 S2_V2_!71)) (or $x575 (= S2_V3_!57 S2_V3_!72)) (= S1_V5_!63 S1_V5_!48) (or (not MW_S1_V6) W_S1_V6) (or (not MW_S1_V4) W_S1_V4) (or (not MW_S1_V5) W_S1_V5) (or (not MW_S1_V2) W_S1_V2) (or (not MW_S1_V1) W_S1_V1) (or (not MW_S3_V6) W_S3_V6) (or (not MW_S3_V4) W_S3_V4) (or (not MW_S3_V2) W_S3_V2) (or (not MW_S3_V3) W_S3_V3) (or (not MW_S3_V1) W_S3_V1) (or (not MW_S2_V6) W_S2_V6) (or (not MW_S2_V5) W_S2_V5) (or (not MW_S2_V2) W_S2_V2) (or (not MW_S2_V3) W_S2_V3) (or (not MW_S2_V1) W_S2_V1))))
 (or (not $x2394) (not (and B1_!45 B1_!60)) $x2966)))))))))))))))))))))))
 )
 )
 )
 )
 )
 )
 )
 )
 )
 )
 )
 )
 )
 )
 )
 )
 )
 )
 )
 )
 )
 )
 )
 )
 )
 )
 )
 )
 )
 )
 )
 )
 )
 )
 )
 )
 )
 )
 )
 )
 )
 )
 )
 )
 )
 )
 )
 )
 )
 )
 )
 ))
 (let (($x819 (and W_S2_V1 W_S3_V1)))
 (let (($x2732 (and W_S2_V3 W_S3_V3)))
 (let (($x2259 (and W_S2_V2 W_S3_V2)))
 (let (($x5712 (and W_S2_V6 W_S3_V6)))
 (let (($x2035 (= DISJ_W_S2_W_S3 (not (or $x5712 W_S3_V4 W_S2_V5 $x2259 $x2732 $x819)))))
 (let (($x3484 (and W_S2_V1 R_S2_V1)))
 (let (($x3000 (and W_S2_V3 R_S2_V3)))
 (let (($x1504 (and W_S2_V2 R_S2_V2)))
 (let (($x2415 (and W_S2_V5 R_S2_V5)))
 (let (($x3260 (and W_S2_V6 R_S2_V6)))
 (let (($x1968 (= DISJ_W_S2_R_S2 (not (or $x3260 R_S2_V4 $x2415 $x1504 $x3000 $x3484)))))
 (let (($x2830 (and W_S2_V1 R_E1_V1)))
 (let (($x3873 (and W_S2_V3 R_E1_V3)))
 (let (($x84 (and W_S2_V2 R_E1_V2)))
 (let (($x498 (and W_S2_V5 R_E1_V5)))
 (let (($x2711 (and W_S2_V6 R_E1_V6)))
 (let (($x3518 (= DISJ_W_S2_R_E1 (not (or $x2711 R_E1_V4 $x498 $x84 $x3873 $x2830)))))
 (let (($x2709 (and W_S2_V1 R_S3_V1)))
 (let (($x2677 (and W_S2_V3 R_S3_V3)))
 (let (($x4992 (and W_S2_V2 R_S3_V2)))
 (let (($x2141 (and W_S2_V5 R_S3_V5)))
 (let (($x2996 (and W_S2_V6 R_S3_V6)))
 (let (($x1515 (= DISJ_W_S2_R_S3 (not (or $x2996 R_S3_V4 $x2141 $x4992 $x2677 $x2709)))))
 (let (($x2895 (and W_S2_V1 R_S1_V1)))
 (let (($x2636 (and W_S2_V3 R_S1_V3)))
 (let (($x3118 (and W_S2_V2 R_S1_V2)))
 (let (($x1760 (and W_S2_V5 R_S1_V5)))
 (let (($x173 (and W_S2_V6 R_S1_V6)))
 (let (($x2178 (= DISJ_W_S2_R_S1 (not (or $x173 R_S1_V4 $x1760 $x3118 $x2636 $x2895)))))
 (let (($x1134 (and W_S2_V1 R_B1_V1)))
 (let (($x1326 (and W_S2_V3 R_B1_V3)))
 (let (($x5939 (and W_S2_V2 R_B1_V2)))
 (let (($x177 (and W_S2_V5 R_B1_V5)))
 (let (($x2911 (and W_S2_V6 R_B1_V6)))
 (let (($x4705 (= DISJ_W_S2_R_B1 (not (or $x2911 R_B1_V4 $x177 $x5939 $x1326 $x1134)))))
 (let (($x1033 (and W_S3_V1 R_S2_V1)))
 (let (($x1403 (and W_S3_V3 R_S2_V3)))
 (let (($x3264 (and W_S3_V2 R_S2_V2)))
 (let (($x2528 (and W_S3_V4 R_S2_V4)))
 (let (($x957 (and W_S3_V6 R_S2_V6)))
 (let (($x2300 (= DISJ_W_S3_R_S2 (not (or $x957 $x2528 R_S2_V5 $x3264 $x1403 $x1033)))))
 (let (($x2278 (and W_S3_V1 R_E1_V1)))
 (let (($x3123 (and W_S3_V3 R_E1_V3)))
 (let (($x2565 (and W_S3_V2 R_E1_V2)))
 (let (($x4043 (and W_S3_V4 R_E1_V4)))
 (let (($x1876 (and W_S3_V6 R_E1_V6)))
 (let (($x2465 (= DISJ_W_S3_R_E1 (not (or $x1876 $x4043 R_E1_V5 $x2565 $x3123 $x2278)))))
 (let (($x2294 (and W_S3_V1 R_S3_V1)))
 (let (($x5840 (and W_S3_V3 R_S3_V3)))
 (let (($x1058 (and W_S3_V2 R_S3_V2)))
 (let (($x6007 (and W_S3_V4 R_S3_V4)))
 (let (($x3586 (and W_S3_V6 R_S3_V6)))
 (let (($x2324 (= DISJ_W_S3_R_S3 (not (or $x3586 $x6007 R_S3_V5 $x1058 $x5840 $x2294)))))
 (let (($x1617 (and W_S3_V1 R_S1_V1)))
 (let (($x586 (and W_S3_V3 R_S1_V3)))
 (let (($x3246 (and W_S3_V2 R_S1_V2)))
 (let (($x3748 (and W_S3_V4 R_S1_V4)))
 (let (($x3184 (and W_S3_V6 R_S1_V6)))
 (let (($x1902 (= DISJ_W_S3_R_S1 (not (or $x3184 $x3748 R_S1_V5 $x3246 $x586 $x1617)))))
 (let (($x1155 (and W_S3_V1 R_B1_V1)))
 (let (($x2611 (and W_S3_V3 R_B1_V3)))
 (let (($x1784 (and W_S3_V2 R_B1_V2)))
 (let (($x5411 (and W_S3_V4 R_B1_V4)))
 (let (($x4528 (and W_S3_V6 R_B1_V6)))
 (let (($x2311 (= DISJ_W_S3_R_B1 (not (or $x4528 $x5411 R_B1_V5 $x1784 $x2611 $x1155)))))
 (let (($x2704 (and W_S1_V1 W_S2_V1)))
 (let (($x3037 (and W_S1_V2 W_S2_V2)))
 (let (($x2192 (and W_S1_V5 W_S2_V5)))
 (let (($x5697 (and W_S1_V6 W_S2_V6)))
 (let (($x1793 (= DISJ_W_S1_W_S2 (not (or $x5697 W_S1_V4 $x2192 $x3037 W_S2_V3 $x2704)))))
 (let (($x260 (and W_S1_V1 W_S3_V1)))
 (let (($x1064 (and W_S1_V2 W_S3_V2)))
 (let (($x4438 (and W_S1_V4 W_S3_V4)))
 (let (($x4759 (and W_S1_V6 W_S3_V6)))
 (let (($x3171 (= DISJ_W_S1_W_S3 (not (or $x4759 $x4438 W_S1_V5 $x1064 W_S3_V3 $x260)))))
 (let (($x2817 (and W_S1_V1 R_S2_V1)))
 (let (($x3660 (and W_S1_V2 R_S2_V2)))
 (let (($x6079 (and W_S1_V5 R_S2_V5)))
 (let (($x2414 (and W_S1_V4 R_S2_V4)))
 (let (($x2923 (and W_S1_V6 R_S2_V6)))
 (let (($x861 (= DISJ_W_S1_R_S2 (not (or $x2923 $x2414 $x6079 $x3660 R_S2_V3 $x2817)))))
 (let (($x5244 (and W_S1_V1 R_E1_V1)))
 (let (($x2733 (and W_S1_V2 R_E1_V2)))
 (let (($x137 (and W_S1_V5 R_E1_V5)))
 (let (($x970 (and W_S1_V4 R_E1_V4)))
 (let (($x1652 (and W_S1_V6 R_E1_V6)))
 (let (($x4237 (= DISJ_W_S1_R_E1 (not (or $x1652 $x970 $x137 $x2733 R_E1_V3 $x5244)))))
 (let (($x803 (and W_S1_V1 R_S3_V1)))
 (let (($x42 (and W_S1_V2 R_S3_V2)))
 (let (($x2486 (and W_S1_V5 R_S3_V5)))
 (let (($x2105 (and W_S1_V4 R_S3_V4)))
 (let (($x1374 (and W_S1_V6 R_S3_V6)))
 (let (($x2104 (= DISJ_W_S1_R_S3 (not (or $x1374 $x2105 $x2486 $x42 R_S3_V3 $x803)))))
 (let (($x141 (and W_S1_V1 R_S1_V1)))
 (let (($x1780 (and W_S1_V2 R_S1_V2)))
 (let (($x3905 (and W_S1_V5 R_S1_V5)))
 (let (($x5771 (and W_S1_V4 R_S1_V4)))
 (let (($x1116 (and W_S1_V6 R_S1_V6)))
 (let (($x2603 (= DISJ_W_S1_R_S1 (not (or $x1116 $x5771 $x3905 $x1780 R_S1_V3 $x141)))))
 (let (($x2776 (and W_S1_V1 R_B1_V1)))
 (let (($x1394 (and W_S1_V2 R_B1_V2)))
 (let (($x4073 (and W_S1_V5 R_B1_V5)))
 (let (($x3340 (and W_S1_V4 R_B1_V4)))
 (let (($x2835 (and W_S1_V6 R_B1_V6)))
 (let (($x929 (= DISJ_W_S1_R_B1 (not (or $x2835 $x3340 $x4073 $x1394 R_B1_V3 $x2776)))))
 (let (($x1852 (and W_S1_V3 W_S3_V5 W_S2_V4 $x929 $x2603 $x2104 $x4237 $x861 $x3171 $x1793 $x2311 $x1902 $x2324 $x2465 $x2300 $x4705 $x2178 $x1515 $x3518 $x1968 $x2035 $x1792)))
 (and $x1852 $x1888))))))))))))))))))))))))))))))))))))))))))))))))))))))))))))))))))))))))))))))))))))))))))))))))))))))))))))))
(check-sat)
